XYZ   H H                      
   1.00000000000000     
    15.4161728677862033    0.0000000000000000    0.0000000000000000
    -7.7080864338931017   13.3507973326353042    0.0000000000000000
     0.0000000000000000    0.0000000000000000   22.8670327734613998
   H  
   2
Selective dynamics
Direct
 0.2673344787272941  0.4793380419980036  0.4161816185942523   T   T   T
 0.3481328037468368  0.5044238614747599  0.3622895316252637   F   F   F
