AutoCreatByScript: Au 
1.000000000
    2.88379359     0.00000000     0.00000000
    0.00000000     2.88379359     0.00000000
    0.00000000     0.00000000    18.15660000
   Au
    5
Selective Dynamics
Direct
    0.000000000000    0.000000000000    0.000000000000    F   F   F
    0.500000000000    0.500000000000    0.112309022614    F   F   F
    0.000000000000    0.000000000000    0.224618045229    T   T   T
    0.500000000000    0.500000000000    0.336927067843    T   T   T
    0.000000000000    0.000000000000    0.449236090457    T   T   T
